% Logging successfully configured
%%%mzn-stat: initTime=0.033112404
%%%mzn-stat: objective=436
%%%mzn-stat: nodes=4059408
%%%mzn-stat: restarts=0
%%%mzn-stat: peakDepth=2266
%%%mzn-stat: solveTime=712.027855388
%%%mzn-stat: variables=3238
%%%mzn-stat: propagators=7685
%%%mzn-stat: failures=2808270
%%%mzn-stat: propagations=1593291777
%%%mzn-stat: nogoods=2808270
%%%mzn-stat: numAtomicConstraintsPropagated=0
%%%mzn-stat: circuitNumber4951PropagationsThatFoundConflict=79914
%%%mzn-stat: circuitNumber4951TotalFixedEdgesAtConflict=7284511
%%%mzn-stat: circuitNumber4951NumberOfConflicts=79914
%%%mzn-stat: circuitNumber4951PropagationsThatPruned=612055
%%%mzn-stat: circuitNumber4951PropagationsTotal=4867842
%%%mzn-stat: AverageConflictSize=11.14951482585364
%%%mzn-stat: NumUnitNogoodsLearned=0
%%%mzn-stat: AverageLearnedNogoodLength=27.193567213978714
%%%mzn-stat: AverageBacktrackAmount=0
%%%mzn-stat: AverageLbd=11.125726514900633
%%%mzn-stat: 2AutonomousSearchNumBackupCalled=2176
%%%mzn-stat: 2AutonomousSearchNumPredicatesRemoved=0
%%%mzn-stat: 2AutonomousSearchNumCalls=2177
%%%mzn-stat: 2AutonomousSearchNumPredicatesAdded=1550
%%%mzn-stat: 2AutonomousSearchAverageSizeOfHeap=0.7119889756545705
%%%mzn-stat: 2AutonomousSearchNumAssignedPredicatesEncountered=1550
%%%mzn-stat-end
maxleg = 436;
succ = array1d(1..100,[2, 3, 4, 12, 1, 5, 6, 15, 11, 14, 13, 10, 17, 23, 20, 7, 18, 19, 21, 24, 41, 16, 26, 30, 22, 27, 31, 9, 25, 35, 36, 29, 32, 33, 38, 40, 45, 39, 47, 44, 43, 34, 51, 54, 50, 37, 28, 8, 48, 63, 53, 42, 58, 72, 49, 55, 65, 57, 56, 59, 64, 67, 61, 62, 71, 60, 69, 46, 70, 66, 77, 79, 83, 78, 52, 80, 76, 75, 89, 84, 82, 87, 74, 94, 73, 85, 92, 86, 97, 93, 88, 98, 100, 99, 90, 95, 68, 96, 81, 91]);
% time elapsed: 726.65 s
----------
